c *********************************
c * Circuit generated by BenCGen
c *
c * CarrySaveAdder_65_65_65_65_66
c *
c * Ports with 1 gate(s): 2
c * Ports with 2 gate(s): 326
c * Total gates: 328
c *********************************
p cnf 523 1112
1 328 0
-1 -328 0
1 -327 0
328 -327 0
-1 -328 327 0
327 -261 0
-327 261 0
1 66 -329 0
-1 66 329 0
1 -66 329 0
-1 -66 -329 0
329 131 -196 0
-329 131 196 0
329 -131 196 0
-329 -131 -196 0
131 -330 0
329 -330 0
-131 -329 330 0
66 -331 0
1 -331 0
-66 -1 331 0
-330 262 0
-331 262 0
330 331 -262 0
2 67 -332 0
-2 67 332 0
2 -67 332 0
-2 -67 -332 0
332 132 -197 0
-332 132 197 0
332 -132 197 0
-332 -132 -197 0
132 -333 0
332 -333 0
-132 -332 333 0
67 -334 0
2 -334 0
-67 -2 334 0
-333 263 0
-334 263 0
333 334 -263 0
3 68 -335 0
-3 68 335 0
3 -68 335 0
-3 -68 -335 0
335 133 -198 0
-335 133 198 0
335 -133 198 0
-335 -133 -198 0
133 -336 0
335 -336 0
-133 -335 336 0
68 -337 0
3 -337 0
-68 -3 337 0
-336 264 0
-337 264 0
336 337 -264 0
4 69 -338 0
-4 69 338 0
4 -69 338 0
-4 -69 -338 0
338 134 -199 0
-338 134 199 0
338 -134 199 0
-338 -134 -199 0
134 -339 0
338 -339 0
-134 -338 339 0
69 -340 0
4 -340 0
-69 -4 340 0
-339 265 0
-340 265 0
339 340 -265 0
5 70 -341 0
-5 70 341 0
5 -70 341 0
-5 -70 -341 0
341 135 -200 0
-341 135 200 0
341 -135 200 0
-341 -135 -200 0
135 -342 0
341 -342 0
-135 -341 342 0
70 -343 0
5 -343 0
-70 -5 343 0
-342 266 0
-343 266 0
342 343 -266 0
6 71 -344 0
-6 71 344 0
6 -71 344 0
-6 -71 -344 0
344 136 -201 0
-344 136 201 0
344 -136 201 0
-344 -136 -201 0
136 -345 0
344 -345 0
-136 -344 345 0
71 -346 0
6 -346 0
-71 -6 346 0
-345 267 0
-346 267 0
345 346 -267 0
7 72 -347 0
-7 72 347 0
7 -72 347 0
-7 -72 -347 0
347 137 -202 0
-347 137 202 0
347 -137 202 0
-347 -137 -202 0
137 -348 0
347 -348 0
-137 -347 348 0
72 -349 0
7 -349 0
-72 -7 349 0
-348 268 0
-349 268 0
348 349 -268 0
8 73 -350 0
-8 73 350 0
8 -73 350 0
-8 -73 -350 0
350 138 -203 0
-350 138 203 0
350 -138 203 0
-350 -138 -203 0
138 -351 0
350 -351 0
-138 -350 351 0
73 -352 0
8 -352 0
-73 -8 352 0
-351 269 0
-352 269 0
351 352 -269 0
9 74 -353 0
-9 74 353 0
9 -74 353 0
-9 -74 -353 0
353 139 -204 0
-353 139 204 0
353 -139 204 0
-353 -139 -204 0
139 -354 0
353 -354 0
-139 -353 354 0
74 -355 0
9 -355 0
-74 -9 355 0
-354 270 0
-355 270 0
354 355 -270 0
10 75 -356 0
-10 75 356 0
10 -75 356 0
-10 -75 -356 0
356 140 -205 0
-356 140 205 0
356 -140 205 0
-356 -140 -205 0
140 -357 0
356 -357 0
-140 -356 357 0
75 -358 0
10 -358 0
-75 -10 358 0
-357 271 0
-358 271 0
357 358 -271 0
11 76 -359 0
-11 76 359 0
11 -76 359 0
-11 -76 -359 0
359 141 -206 0
-359 141 206 0
359 -141 206 0
-359 -141 -206 0
141 -360 0
359 -360 0
-141 -359 360 0
76 -361 0
11 -361 0
-76 -11 361 0
-360 272 0
-361 272 0
360 361 -272 0
12 77 -362 0
-12 77 362 0
12 -77 362 0
-12 -77 -362 0
362 142 -207 0
-362 142 207 0
362 -142 207 0
-362 -142 -207 0
142 -363 0
362 -363 0
-142 -362 363 0
77 -364 0
12 -364 0
-77 -12 364 0
-363 273 0
-364 273 0
363 364 -273 0
13 78 -365 0
-13 78 365 0
13 -78 365 0
-13 -78 -365 0
365 143 -208 0
-365 143 208 0
365 -143 208 0
-365 -143 -208 0
143 -366 0
365 -366 0
-143 -365 366 0
78 -367 0
13 -367 0
-78 -13 367 0
-366 274 0
-367 274 0
366 367 -274 0
14 79 -368 0
-14 79 368 0
14 -79 368 0
-14 -79 -368 0
368 144 -209 0
-368 144 209 0
368 -144 209 0
-368 -144 -209 0
144 -369 0
368 -369 0
-144 -368 369 0
79 -370 0
14 -370 0
-79 -14 370 0
-369 275 0
-370 275 0
369 370 -275 0
15 80 -371 0
-15 80 371 0
15 -80 371 0
-15 -80 -371 0
371 145 -210 0
-371 145 210 0
371 -145 210 0
-371 -145 -210 0
145 -372 0
371 -372 0
-145 -371 372 0
80 -373 0
15 -373 0
-80 -15 373 0
-372 276 0
-373 276 0
372 373 -276 0
16 81 -374 0
-16 81 374 0
16 -81 374 0
-16 -81 -374 0
374 146 -211 0
-374 146 211 0
374 -146 211 0
-374 -146 -211 0
146 -375 0
374 -375 0
-146 -374 375 0
81 -376 0
16 -376 0
-81 -16 376 0
-375 277 0
-376 277 0
375 376 -277 0
17 82 -377 0
-17 82 377 0
17 -82 377 0
-17 -82 -377 0
377 147 -212 0
-377 147 212 0
377 -147 212 0
-377 -147 -212 0
147 -378 0
377 -378 0
-147 -377 378 0
82 -379 0
17 -379 0
-82 -17 379 0
-378 278 0
-379 278 0
378 379 -278 0
18 83 -380 0
-18 83 380 0
18 -83 380 0
-18 -83 -380 0
380 148 -213 0
-380 148 213 0
380 -148 213 0
-380 -148 -213 0
148 -381 0
380 -381 0
-148 -380 381 0
83 -382 0
18 -382 0
-83 -18 382 0
-381 279 0
-382 279 0
381 382 -279 0
19 84 -383 0
-19 84 383 0
19 -84 383 0
-19 -84 -383 0
383 149 -214 0
-383 149 214 0
383 -149 214 0
-383 -149 -214 0
149 -384 0
383 -384 0
-149 -383 384 0
84 -385 0
19 -385 0
-84 -19 385 0
-384 280 0
-385 280 0
384 385 -280 0
20 85 -386 0
-20 85 386 0
20 -85 386 0
-20 -85 -386 0
386 150 -215 0
-386 150 215 0
386 -150 215 0
-386 -150 -215 0
150 -387 0
386 -387 0
-150 -386 387 0
85 -388 0
20 -388 0
-85 -20 388 0
-387 281 0
-388 281 0
387 388 -281 0
21 86 -389 0
-21 86 389 0
21 -86 389 0
-21 -86 -389 0
389 151 -216 0
-389 151 216 0
389 -151 216 0
-389 -151 -216 0
151 -390 0
389 -390 0
-151 -389 390 0
86 -391 0
21 -391 0
-86 -21 391 0
-390 282 0
-391 282 0
390 391 -282 0
22 87 -392 0
-22 87 392 0
22 -87 392 0
-22 -87 -392 0
392 152 -217 0
-392 152 217 0
392 -152 217 0
-392 -152 -217 0
152 -393 0
392 -393 0
-152 -392 393 0
87 -394 0
22 -394 0
-87 -22 394 0
-393 283 0
-394 283 0
393 394 -283 0
23 88 -395 0
-23 88 395 0
23 -88 395 0
-23 -88 -395 0
395 153 -218 0
-395 153 218 0
395 -153 218 0
-395 -153 -218 0
153 -396 0
395 -396 0
-153 -395 396 0
88 -397 0
23 -397 0
-88 -23 397 0
-396 284 0
-397 284 0
396 397 -284 0
24 89 -398 0
-24 89 398 0
24 -89 398 0
-24 -89 -398 0
398 154 -219 0
-398 154 219 0
398 -154 219 0
-398 -154 -219 0
154 -399 0
398 -399 0
-154 -398 399 0
89 -400 0
24 -400 0
-89 -24 400 0
-399 285 0
-400 285 0
399 400 -285 0
25 90 -401 0
-25 90 401 0
25 -90 401 0
-25 -90 -401 0
401 155 -220 0
-401 155 220 0
401 -155 220 0
-401 -155 -220 0
155 -402 0
401 -402 0
-155 -401 402 0
90 -403 0
25 -403 0
-90 -25 403 0
-402 286 0
-403 286 0
402 403 -286 0
26 91 -404 0
-26 91 404 0
26 -91 404 0
-26 -91 -404 0
404 156 -221 0
-404 156 221 0
404 -156 221 0
-404 -156 -221 0
156 -405 0
404 -405 0
-156 -404 405 0
91 -406 0
26 -406 0
-91 -26 406 0
-405 287 0
-406 287 0
405 406 -287 0
27 92 -407 0
-27 92 407 0
27 -92 407 0
-27 -92 -407 0
407 157 -222 0
-407 157 222 0
407 -157 222 0
-407 -157 -222 0
157 -408 0
407 -408 0
-157 -407 408 0
92 -409 0
27 -409 0
-92 -27 409 0
-408 288 0
-409 288 0
408 409 -288 0
28 93 -410 0
-28 93 410 0
28 -93 410 0
-28 -93 -410 0
410 158 -223 0
-410 158 223 0
410 -158 223 0
-410 -158 -223 0
158 -411 0
410 -411 0
-158 -410 411 0
93 -412 0
28 -412 0
-93 -28 412 0
-411 289 0
-412 289 0
411 412 -289 0
29 94 -413 0
-29 94 413 0
29 -94 413 0
-29 -94 -413 0
413 159 -224 0
-413 159 224 0
413 -159 224 0
-413 -159 -224 0
159 -414 0
413 -414 0
-159 -413 414 0
94 -415 0
29 -415 0
-94 -29 415 0
-414 290 0
-415 290 0
414 415 -290 0
30 95 -416 0
-30 95 416 0
30 -95 416 0
-30 -95 -416 0
416 160 -225 0
-416 160 225 0
416 -160 225 0
-416 -160 -225 0
160 -417 0
416 -417 0
-160 -416 417 0
95 -418 0
30 -418 0
-95 -30 418 0
-417 291 0
-418 291 0
417 418 -291 0
31 96 -419 0
-31 96 419 0
31 -96 419 0
-31 -96 -419 0
419 161 -226 0
-419 161 226 0
419 -161 226 0
-419 -161 -226 0
161 -420 0
419 -420 0
-161 -419 420 0
96 -421 0
31 -421 0
-96 -31 421 0
-420 292 0
-421 292 0
420 421 -292 0
32 97 -422 0
-32 97 422 0
32 -97 422 0
-32 -97 -422 0
422 162 -227 0
-422 162 227 0
422 -162 227 0
-422 -162 -227 0
162 -423 0
422 -423 0
-162 -422 423 0
97 -424 0
32 -424 0
-97 -32 424 0
-423 293 0
-424 293 0
423 424 -293 0
33 98 -425 0
-33 98 425 0
33 -98 425 0
-33 -98 -425 0
425 163 -228 0
-425 163 228 0
425 -163 228 0
-425 -163 -228 0
163 -426 0
425 -426 0
-163 -425 426 0
98 -427 0
33 -427 0
-98 -33 427 0
-426 294 0
-427 294 0
426 427 -294 0
34 99 -428 0
-34 99 428 0
34 -99 428 0
-34 -99 -428 0
428 164 -229 0
-428 164 229 0
428 -164 229 0
-428 -164 -229 0
164 -429 0
428 -429 0
-164 -428 429 0
99 -430 0
34 -430 0
-99 -34 430 0
-429 295 0
-430 295 0
429 430 -295 0
35 100 -431 0
-35 100 431 0
35 -100 431 0
-35 -100 -431 0
431 165 -230 0
-431 165 230 0
431 -165 230 0
-431 -165 -230 0
165 -432 0
431 -432 0
-165 -431 432 0
100 -433 0
35 -433 0
-100 -35 433 0
-432 296 0
-433 296 0
432 433 -296 0
36 101 -434 0
-36 101 434 0
36 -101 434 0
-36 -101 -434 0
434 166 -231 0
-434 166 231 0
434 -166 231 0
-434 -166 -231 0
166 -435 0
434 -435 0
-166 -434 435 0
101 -436 0
36 -436 0
-101 -36 436 0
-435 297 0
-436 297 0
435 436 -297 0
37 102 -437 0
-37 102 437 0
37 -102 437 0
-37 -102 -437 0
437 167 -232 0
-437 167 232 0
437 -167 232 0
-437 -167 -232 0
167 -438 0
437 -438 0
-167 -437 438 0
102 -439 0
37 -439 0
-102 -37 439 0
-438 298 0
-439 298 0
438 439 -298 0
38 103 -440 0
-38 103 440 0
38 -103 440 0
-38 -103 -440 0
440 168 -233 0
-440 168 233 0
440 -168 233 0
-440 -168 -233 0
168 -441 0
440 -441 0
-168 -440 441 0
103 -442 0
38 -442 0
-103 -38 442 0
-441 299 0
-442 299 0
441 442 -299 0
39 104 -443 0
-39 104 443 0
39 -104 443 0
-39 -104 -443 0
443 169 -234 0
-443 169 234 0
443 -169 234 0
-443 -169 -234 0
169 -444 0
443 -444 0
-169 -443 444 0
104 -445 0
39 -445 0
-104 -39 445 0
-444 300 0
-445 300 0
444 445 -300 0
40 105 -446 0
-40 105 446 0
40 -105 446 0
-40 -105 -446 0
446 170 -235 0
-446 170 235 0
446 -170 235 0
-446 -170 -235 0
170 -447 0
446 -447 0
-170 -446 447 0
105 -448 0
40 -448 0
-105 -40 448 0
-447 301 0
-448 301 0
447 448 -301 0
41 106 -449 0
-41 106 449 0
41 -106 449 0
-41 -106 -449 0
449 171 -236 0
-449 171 236 0
449 -171 236 0
-449 -171 -236 0
171 -450 0
449 -450 0
-171 -449 450 0
106 -451 0
41 -451 0
-106 -41 451 0
-450 302 0
-451 302 0
450 451 -302 0
42 107 -452 0
-42 107 452 0
42 -107 452 0
-42 -107 -452 0
452 172 -237 0
-452 172 237 0
452 -172 237 0
-452 -172 -237 0
172 -453 0
452 -453 0
-172 -452 453 0
107 -454 0
42 -454 0
-107 -42 454 0
-453 303 0
-454 303 0
453 454 -303 0
43 108 -455 0
-43 108 455 0
43 -108 455 0
-43 -108 -455 0
455 173 -238 0
-455 173 238 0
455 -173 238 0
-455 -173 -238 0
173 -456 0
455 -456 0
-173 -455 456 0
108 -457 0
43 -457 0
-108 -43 457 0
-456 304 0
-457 304 0
456 457 -304 0
44 109 -458 0
-44 109 458 0
44 -109 458 0
-44 -109 -458 0
458 174 -239 0
-458 174 239 0
458 -174 239 0
-458 -174 -239 0
174 -459 0
458 -459 0
-174 -458 459 0
109 -460 0
44 -460 0
-109 -44 460 0
-459 305 0
-460 305 0
459 460 -305 0
45 110 -461 0
-45 110 461 0
45 -110 461 0
-45 -110 -461 0
461 175 -240 0
-461 175 240 0
461 -175 240 0
-461 -175 -240 0
175 -462 0
461 -462 0
-175 -461 462 0
110 -463 0
45 -463 0
-110 -45 463 0
-462 306 0
-463 306 0
462 463 -306 0
46 111 -464 0
-46 111 464 0
46 -111 464 0
-46 -111 -464 0
464 176 -241 0
-464 176 241 0
464 -176 241 0
-464 -176 -241 0
176 -465 0
464 -465 0
-176 -464 465 0
111 -466 0
46 -466 0
-111 -46 466 0
-465 307 0
-466 307 0
465 466 -307 0
47 112 -467 0
-47 112 467 0
47 -112 467 0
-47 -112 -467 0
467 177 -242 0
-467 177 242 0
467 -177 242 0
-467 -177 -242 0
177 -468 0
467 -468 0
-177 -467 468 0
112 -469 0
47 -469 0
-112 -47 469 0
-468 308 0
-469 308 0
468 469 -308 0
48 113 -470 0
-48 113 470 0
48 -113 470 0
-48 -113 -470 0
470 178 -243 0
-470 178 243 0
470 -178 243 0
-470 -178 -243 0
178 -471 0
470 -471 0
-178 -470 471 0
113 -472 0
48 -472 0
-113 -48 472 0
-471 309 0
-472 309 0
471 472 -309 0
49 114 -473 0
-49 114 473 0
49 -114 473 0
-49 -114 -473 0
473 179 -244 0
-473 179 244 0
473 -179 244 0
-473 -179 -244 0
179 -474 0
473 -474 0
-179 -473 474 0
114 -475 0
49 -475 0
-114 -49 475 0
-474 310 0
-475 310 0
474 475 -310 0
50 115 -476 0
-50 115 476 0
50 -115 476 0
-50 -115 -476 0
476 180 -245 0
-476 180 245 0
476 -180 245 0
-476 -180 -245 0
180 -477 0
476 -477 0
-180 -476 477 0
115 -478 0
50 -478 0
-115 -50 478 0
-477 311 0
-478 311 0
477 478 -311 0
51 116 -479 0
-51 116 479 0
51 -116 479 0
-51 -116 -479 0
479 181 -246 0
-479 181 246 0
479 -181 246 0
-479 -181 -246 0
181 -480 0
479 -480 0
-181 -479 480 0
116 -481 0
51 -481 0
-116 -51 481 0
-480 312 0
-481 312 0
480 481 -312 0
52 117 -482 0
-52 117 482 0
52 -117 482 0
-52 -117 -482 0
482 182 -247 0
-482 182 247 0
482 -182 247 0
-482 -182 -247 0
182 -483 0
482 -483 0
-182 -482 483 0
117 -484 0
52 -484 0
-117 -52 484 0
-483 313 0
-484 313 0
483 484 -313 0
53 118 -485 0
-53 118 485 0
53 -118 485 0
-53 -118 -485 0
485 183 -248 0
-485 183 248 0
485 -183 248 0
-485 -183 -248 0
183 -486 0
485 -486 0
-183 -485 486 0
118 -487 0
53 -487 0
-118 -53 487 0
-486 314 0
-487 314 0
486 487 -314 0
54 119 -488 0
-54 119 488 0
54 -119 488 0
-54 -119 -488 0
488 184 -249 0
-488 184 249 0
488 -184 249 0
-488 -184 -249 0
184 -489 0
488 -489 0
-184 -488 489 0
119 -490 0
54 -490 0
-119 -54 490 0
-489 315 0
-490 315 0
489 490 -315 0
55 120 -491 0
-55 120 491 0
55 -120 491 0
-55 -120 -491 0
491 185 -250 0
-491 185 250 0
491 -185 250 0
-491 -185 -250 0
185 -492 0
491 -492 0
-185 -491 492 0
120 -493 0
55 -493 0
-120 -55 493 0
-492 316 0
-493 316 0
492 493 -316 0
56 121 -494 0
-56 121 494 0
56 -121 494 0
-56 -121 -494 0
494 186 -251 0
-494 186 251 0
494 -186 251 0
-494 -186 -251 0
186 -495 0
494 -495 0
-186 -494 495 0
121 -496 0
56 -496 0
-121 -56 496 0
-495 317 0
-496 317 0
495 496 -317 0
57 122 -497 0
-57 122 497 0
57 -122 497 0
-57 -122 -497 0
497 187 -252 0
-497 187 252 0
497 -187 252 0
-497 -187 -252 0
187 -498 0
497 -498 0
-187 -497 498 0
122 -499 0
57 -499 0
-122 -57 499 0
-498 318 0
-499 318 0
498 499 -318 0
58 123 -500 0
-58 123 500 0
58 -123 500 0
-58 -123 -500 0
500 188 -253 0
-500 188 253 0
500 -188 253 0
-500 -188 -253 0
188 -501 0
500 -501 0
-188 -500 501 0
123 -502 0
58 -502 0
-123 -58 502 0
-501 319 0
-502 319 0
501 502 -319 0
59 124 -503 0
-59 124 503 0
59 -124 503 0
-59 -124 -503 0
503 189 -254 0
-503 189 254 0
503 -189 254 0
-503 -189 -254 0
189 -504 0
503 -504 0
-189 -503 504 0
124 -505 0
59 -505 0
-124 -59 505 0
-504 320 0
-505 320 0
504 505 -320 0
60 125 -506 0
-60 125 506 0
60 -125 506 0
-60 -125 -506 0
506 190 -255 0
-506 190 255 0
506 -190 255 0
-506 -190 -255 0
190 -507 0
506 -507 0
-190 -506 507 0
125 -508 0
60 -508 0
-125 -60 508 0
-507 321 0
-508 321 0
507 508 -321 0
61 126 -509 0
-61 126 509 0
61 -126 509 0
-61 -126 -509 0
509 191 -256 0
-509 191 256 0
509 -191 256 0
-509 -191 -256 0
191 -510 0
509 -510 0
-191 -509 510 0
126 -511 0
61 -511 0
-126 -61 511 0
-510 322 0
-511 322 0
510 511 -322 0
62 127 -512 0
-62 127 512 0
62 -127 512 0
-62 -127 -512 0
512 192 -257 0
-512 192 257 0
512 -192 257 0
-512 -192 -257 0
192 -513 0
512 -513 0
-192 -512 513 0
127 -514 0
62 -514 0
-127 -62 514 0
-513 323 0
-514 323 0
513 514 -323 0
63 128 -515 0
-63 128 515 0
63 -128 515 0
-63 -128 -515 0
515 193 -258 0
-515 193 258 0
515 -193 258 0
-515 -193 -258 0
193 -516 0
515 -516 0
-193 -515 516 0
128 -517 0
63 -517 0
-128 -63 517 0
-516 324 0
-517 324 0
516 517 -324 0
64 129 -518 0
-64 129 518 0
64 -129 518 0
-64 -129 -518 0
518 194 -259 0
-518 194 259 0
518 -194 259 0
-518 -194 -259 0
194 -519 0
518 -519 0
-194 -518 519 0
129 -520 0
64 -520 0
-129 -64 520 0
-519 325 0
-520 325 0
519 520 -325 0
65 130 -521 0
-65 130 521 0
65 -130 521 0
-65 -130 -521 0
521 195 -260 0
-521 195 260 0
521 -195 260 0
-521 -195 -260 0
195 -522 0
521 -522 0
-195 -521 522 0
130 -523 0
65 -523 0
-130 -65 523 0
-522 326 0
-523 326 0
522 523 -326 0
